
  32    4
  10   10   10   10

   0   0   0   0   0   2 2 31 
   7  10  10  10  10   5 30 29 28 27 3 
   8  10  10  10  10   5 26 25 24 23 4 
   4  10  10  10  10   3 22 21 5 
   9  10  10  10  10   2 20 6 
   2  10  10  10  10   2 19 7 
   5  10  10  10  10   2 18 8 
   8  10  10  10  10   2 17 9 
   5  10  10  10  10   1 10 
  10  10  10  10  10   1 11 
   8  10  10  10  10   1 12 
   1  10  10  10  10   1 13 
   6  10  10  10  10   1 14 
   2  10  10  10  10   1 15 
   4  10  10  10  10   1 16 
   8  10  10  10  10   1 32
   5  10  10  10  10   1 32
  10  10  10  10  10   1 32
   5  10  10  10  10   1 32
   7  10  10  10  10   1 32
   9  10  10  10  10   1 32
   1  10  10  10  10   1 32
   6  10  10  10  10   1 32
   1  10  10  10  10   1 32
   9  10  10  10  10   1 32
   6  10  10  10  10   1 32
   4  10  10  10  10   1 32
   3  10  10  10  10   1 32
  10  10  10  10  10   1 32
   3  10  10  10  10   1 32
   6  10  10  10  10   1 32
   0   0   0   0   0   0 
